
# Pair Coeffs
#
# 1  CT1
# 2  CT2
# 3  H1
# 4  HC
# 5  HO
# 6  HW
# 7  OH
# 8  OW



pair_coeff	1	1	0.1094		3.399669508
pair_coeff	1	2	0.1094		3.399669508
pair_coeff	1	3	0.04144369675	2.935511276
pair_coeff	1	4	0.04144369675	3.024601148	
pair_coeff	1	5	0		1.699834754	
pair_coeff	1	7	0.1517160506	3.233071448
pair_coeff	1       6       0.04144369675   3.024601148
pair_coeff	1       8       0.1289527045    2.384312239
pair_coeff	2	2	0.1094		3.399669508
pair_coeff	2	3	0.04144369675	2.935511276
pair_coeff	2	4	0.04144369675	3.024601148	
pair_coeff	2	5	0		1.699834754	
pair_coeff	2	7	0.1517160506	3.233071448
pair_coeff	2       6       0.04144369675   3.024601148
pair_coeff	2       8       0.1289527045    2.384312239
pair_coeff      3       3       0.0157		2.471353044
pair_coeff      3       4       0.0157		2.560442916	
pair_coeff      3       5       0		1.235676522	
pair_coeff      3       6       0.0157          2.560442916
pair_coeff      3       7       0.05747416811   2.768913216
pair_coeff      3       8       0.04885079324   1.920154007
pair_coeff	4	4	0.0157		2.6495		
pair_coeff	4	5	0.001252996409	1.324766394			
pair_coeff	4	6	0 		1.3247			
pair_coeff	4	7	0.05747416811 	2.858003088
pair_coeff	4	8	0.04885079324 	2.009243879
pair_coeff	5	5	0.0             0.0				
pair_coeff	5	6	0.05747416811 	2.858003088
pair_coeff	5	7	0 		1.533236694
pair_coeff	5	8	0 		0.6844774851
pair_coeff	6	6	0.0157 		2.6495
pair_coeff	6	7	0 		1.533236694
pair_coeff	6	8	0 		0.6844774851
pair_coeff	7	7	0.2104 		3.066473388
pair_coeff	7	8	0.1788317645 	2.217714179
pair_coeff	8	8	0.152 		1.36895497



bond_coeff	1	310.0		1.526		#CT1-CT2 
bond_coeff	2	340.0		1.090		#CT1-HC 
bond_coeff	3	340.0		1.09 		#CT2-H1
bond_coeff	4	320.0 		1.41 		#CT2-OH
bond_coeff	5	553.0 		0.960		#HO-OH
bond_coeff	6	553.0 		0.9572 		#HW-OW


angle_coeff	 1	40.0 		109.50		#CT1-CT2-CT1 
angle_coeff	 2	50.0 		109.50 		#CT1-CT2-H1 
angle_coeff	 3	50.0 		109.5 		#CT1-CT2-OH
angle_coeff	 4	40.0 		109.50		#CT2-CT1-CT2
angle_coeff	 5	50.0 		109.50 		#CT2-CT1-HC
angle_coeff	 6	55.0 		108.5 		#CT2-OH-HO 
angle_coeff	 7	35.0 		109.5 		#H1-CT2-H1
angle_coeff	 8	50.0 		109.50 		#H1-CT2-OH
angle_coeff	 9	35.0 		109.50 		#HC-CT1-HC
angle_coeff	 10	100.0 		104.52 		#HW-OW-HW


dihedral_coeff	 1	0.5	3	0 	0.0	#CT1-CT2-OH-HO
dihedral_coeff	 2	1.40 	3 	0 	0.0 	#CT2-CT1-CT2-CT1
dihedral_coeff	 3	1.40 	3 	0 	0.0 	#CT2-CT1-CT2-H1
dihedral_coeff	 4	1.40 	3 	0 	0.0 	#CT2-CT1-CT2-OH 
dihedral_coeff	 5	0.5	3	0 	0.0	#H1-CT2-OH-HO
dihedral_coeff	 6	1.40 	3 	0 	0.0 	#HC-CT1-CT2-CT1
dihedral_coeff	 7	1.40 	3 	0 	0.0 	#HC-CT1-CT2-H1
dihedral_coeff	 8	1.40 	3 	0 	0.0 	#HC-CT1-CT2-OH





























